solution status: optimal solution found
objective value:                     172815.710178254
d11(0,0)                                            1 	(obj:0)
d11(1,1)                                            1 	(obj:0)
d11(2,4)                                            1 	(obj:0)
d11(2,5)                                            1 	(obj:0)
d11(2,6)                                            1 	(obj:0)
d11(2,7)                                            1 	(obj:0)
d11(2,8)                                            1 	(obj:0)
d11(2,9)                                            1 	(obj:0)
d11(2,10)                                           1 	(obj:0)
d11(2,11)                                           1 	(obj:0)
d11(2,12)                                           1 	(obj:0)
d11(3,13)                                           1 	(obj:0)
d11(3,14)                                           1 	(obj:0)
d11(3,16)                                           1 	(obj:0)
d11(3,17)                                           1 	(obj:0)
d11(3,19)                                           1 	(obj:0)
d11(3,22)                                           1 	(obj:0)
d11(3,25)                                           1 	(obj:0)
d11(3,26)                                           1 	(obj:0)
d11(3,28)                                           1 	(obj:0)
d11(3,31)                                           1 	(obj:0)
d11(3,32)                                           1 	(obj:0)
d11(3,34)                                           1 	(obj:0)
d11(3,35)                                           1 	(obj:0)
d11(3,37)                                           1 	(obj:0)
d11(4,40)                                           1 	(obj:0)
d11(4,41)                                           1 	(obj:0)
d11(4,42)                                           1 	(obj:0)
d11(4,43)                                           1 	(obj:0)
d11(4,44)                                           1 	(obj:0)
d11(4,45)                                           1 	(obj:0)
d11(4,46)                                           1 	(obj:0)
d11(4,47)                                           1 	(obj:0)
d11(4,48)                                           1 	(obj:0)
d11(4,49)                                           1 	(obj:0)
d11(4,50)                                           1 	(obj:0)
d11(4,51)                                           1 	(obj:0)
d11(4,52)                                           1 	(obj:0)
d11(4,53)                                           1 	(obj:0)
d11(4,55)                                           1 	(obj:0)
d11(4,56)                                           1 	(obj:0)
d11(4,58)                                           1 	(obj:0)
d11(4,59)                                           1 	(obj:0)
d11(4,60)                                           1 	(obj:0)
d11(4,61)                                           1 	(obj:0)
d11(4,62)                                           1 	(obj:0)
d11(4,63)                                           1 	(obj:0)
d11(4,64)                                           1 	(obj:0)
d11(4,65)                                           1 	(obj:0)
d11(4,66)                                           1 	(obj:0)
d11(4,67)                                           1 	(obj:0)
d11(4,68)                                           1 	(obj:0)
d11(4,69)                                           1 	(obj:0)
d11(4,70)                                           1 	(obj:0)
d11(4,71)                                           1 	(obj:0)
d11(4,72)                                           1 	(obj:0)
d11(4,73)                                           1 	(obj:0)
d11(4,74)                                           1 	(obj:0)
d11(4,75)                                           1 	(obj:0)
d11(4,76)                                           1 	(obj:0)
d11(4,77)                                           1 	(obj:0)
d11(4,78)                                           1 	(obj:0)
d11(4,79)                                           1 	(obj:0)
d11(4,80)                                           1 	(obj:0)
d11(4,81)                                           1 	(obj:0)
d11(4,82)                                           1 	(obj:0)
d11(4,83)                                           1 	(obj:0)
d11(4,84)                                           1 	(obj:0)
d11(4,85)                                           1 	(obj:0)
d11(4,86)                                           1 	(obj:0)
d11(4,87)                                           1 	(obj:0)
d11(4,88)                                           1 	(obj:0)
d11(4,89)                                           1 	(obj:0)
d11(4,90)                                           1 	(obj:0)
d11(4,91)                                           1 	(obj:0)
d11(4,92)                                           1 	(obj:0)
d11(4,93)                                           1 	(obj:0)
d11(4,94)                                           1 	(obj:0)
d11(4,95)                                           1 	(obj:0)
d11(4,96)                                           1 	(obj:0)
d11(4,97)                                           1 	(obj:0)
d11(4,98)                                           1 	(obj:0)
d11(4,99)                                           1 	(obj:0)
d11(4,100)                                          1 	(obj:0)
d11(4,101)                                          1 	(obj:0)
d11(4,102)                                          1 	(obj:0)
d11(4,103)                                          1 	(obj:0)
d11(4,104)                                          1 	(obj:0)
d11(4,105)                                          1 	(obj:0)
d11(4,106)                                          1 	(obj:0)
d11(4,107)                                          1 	(obj:0)
d11(4,109)                                          1 	(obj:0)
d11(4,110)                                          1 	(obj:0)
d11(4,111)                                          1 	(obj:0)
d11(4,112)                                          1 	(obj:0)
d11(4,113)                                          1 	(obj:0)
d11(4,114)                                          1 	(obj:0)
d11(4,115)                                          1 	(obj:0)
d11(4,116)                                          1 	(obj:0)
d11(4,117)                                          1 	(obj:0)
d11(4,118)                                          1 	(obj:0)
d11(4,119)                                          1 	(obj:0)
d11(4,120)                                          1 	(obj:0)
d12(1,3)                                            1 	(obj:0)
d12(3,15)                                           1 	(obj:0)
d12(3,18)                                           1 	(obj:0)
d12(3,21)                                           1 	(obj:0)
d12(3,24)                                           1 	(obj:0)
d12(3,27)                                           1 	(obj:0)
d12(3,30)                                           1 	(obj:0)
d12(3,33)                                           1 	(obj:0)
d12(3,36)                                           1 	(obj:0)
d12(3,39)                                           1 	(obj:0)
d21(3,13)                                           1 	(obj:0)
d21(4,40)                                           1 	(obj:0)
d21(4,41)                                           1 	(obj:0)
d21(4,42)                                           1 	(obj:0)
d21(4,43)                                           1 	(obj:0)
d21(4,44)                                           1 	(obj:0)
d21(4,45)                                           1 	(obj:0)
d21(4,46)                                           1 	(obj:0)
d21(4,47)                                           1 	(obj:0)
d21(4,49)                                           1 	(obj:0)
d21(4,50)                                           1 	(obj:0)
d21(4,51)                                           1 	(obj:0)
d21(4,52)                                           1 	(obj:0)
d21(4,53)                                           1 	(obj:0)
d21(4,55)                                           1 	(obj:0)
d21(4,58)                                           1 	(obj:0)
d21(4,59)                                           1 	(obj:0)
d21(4,61)                                           1 	(obj:0)
d21(4,67)                                           1 	(obj:0)
d21(4,68)                                           1 	(obj:0)
d21(4,69)                                           1 	(obj:0)
d21(4,70)                                           1 	(obj:0)
d21(4,71)                                           1 	(obj:0)
d21(4,73)                                           1 	(obj:0)
d21(4,76)                                           1 	(obj:0)
d21(4,77)                                           1 	(obj:0)
d21(4,79)                                           1 	(obj:0)
d21(4,85)                                           1 	(obj:0)
d21(4,94)                                           1 	(obj:0)
d21(4,95)                                           1 	(obj:0)
d21(4,97)                                           1 	(obj:0)
d21(4,100)                                          1 	(obj:0)
d21(4,103)                                          1 	(obj:0)
STE(1,1)                             9146.23399666671 	(obj:0)
STE(0,0)                                        11025 	(obj:0)
STE(1,2)                                        10143 	(obj:0)
STE(1,3)                               11055.56333385 	(obj:0)
STE(2,4)                              4379.6228661501 	(obj:0)
STE(2,5)                             5376.38886948339 	(obj:0)
STE(2,6)                             6593.84107281677 	(obj:0)
STE(2,7)                             5376.38886948339 	(obj:0)
STE(2,8)                             6373.15487281668 	(obj:0)
STE(2,9)                             7590.60707615006 	(obj:0)
STE(2,10)                            6288.95220333343 	(obj:0)
STE(2,11)                            7285.71820666672 	(obj:0)
STE(2,12)                             8503.1704100001 	(obj:0)
STE(3,13)                            2500.85686281675 	(obj:0)
STE(3,14)                             3497.6228661501 	(obj:0)
STE(3,15)                            4410.18620000009 	(obj:0)
STE(3,16)                            3497.62286615004 	(obj:0)
STE(3,17)                            4494.38886948339 	(obj:0)
STE(3,18)                            5406.95220333338 	(obj:0)
STE(3,19)                            4715.07506948342 	(obj:0)
STE(3,20)                            5711.84107281677 	(obj:0)
STE(3,21)                            6624.40440666676 	(obj:0)
STE(3,22)                            3497.62286615004 	(obj:0)
STE(3,23)                            4494.38886948339 	(obj:0)
STE(3,24)                            5406.95220333338 	(obj:0)
STE(3,25)                            4494.38886948333 	(obj:0)
STE(3,26)                            5491.15487281668 	(obj:0)
STE(3,27)                            6403.71820666667 	(obj:0)
STE(3,28)                            5711.84107281671 	(obj:0)
STE(3,29)                            6708.60707615006 	(obj:0)
STE(3,30)                            7621.17041000005 	(obj:0)
STE(3,31)                            4410.18620000008 	(obj:0)
STE(3,32)                            5406.95220333343 	(obj:0)
STE(3,33)                            6319.51553718342 	(obj:0)
STE(3,34)                            5406.95220333337 	(obj:0)
STE(3,35)                            6403.71820666672 	(obj:0)
STE(3,36)                            7316.28154051671 	(obj:0)
STE(3,37)                            6624.40440666675 	(obj:0)
STE(3,38)                             7621.1704100001 	(obj:0)
STE(3,39)                            8533.73374385009 	(obj:0)
STE(4,40)                           -595.361343849917 	(obj:0)
STE(4,41)                            401.404659483374 	(obj:0)
STE(4,42)                            1618.85686281675 	(obj:0)
STE(4,43)                            401.404659483432 	(obj:0)
STE(4,44)                            1398.17066281672 	(obj:0)
STE(4,45)                             2615.6228661501 	(obj:0)
STE(4,46)                            1313.96799333342 	(obj:0)
STE(4,47)                            2310.73399666671 	(obj:0)
STE(4,48)                            3528.18620000009 	(obj:0)
STE(4,49)                            401.404659483372 	(obj:0)
STE(4,50)                            1398.17066281666 	(obj:0)
STE(4,51)                            2615.62286615004 	(obj:0)
STE(4,52)                            1398.17066281672 	(obj:0)
STE(4,53)                            2394.93666615001 	(obj:0)
STE(4,54)                            3612.38886948339 	(obj:0)
STE(4,55)                            2310.73399666671 	(obj:0)
STE(4,56)                                      3307.5 	(obj:0)
STE(4,57)                            4524.95220333338 	(obj:0)
STE(4,58)                            1618.85686281675 	(obj:0)
STE(4,59)                            2615.62286615004 	(obj:0)
STE(4,60)                            3833.07506948342 	(obj:0)
STE(4,61)                             2615.6228661501 	(obj:0)
STE(4,62)                            3612.38886948339 	(obj:0)
STE(4,63)                            4829.84107281677 	(obj:0)
STE(4,64)                            3528.18620000009 	(obj:0)
STE(4,65)                            4524.95220333338 	(obj:0)
STE(4,66)                            5742.40440666676 	(obj:0)
STE(4,67)                            401.404659483372 	(obj:0)
STE(4,68)                            1398.17066281666 	(obj:0)
STE(4,69)                            2615.62286615004 	(obj:0)
STE(4,70)                            1398.17066281672 	(obj:0)
STE(4,71)                            2394.93666615001 	(obj:0)
STE(4,72)                            3612.38886948339 	(obj:0)
STE(4,73)                            2310.73399666671 	(obj:0)
STE(4,74)                                      3307.5 	(obj:0)
STE(4,75)                            4524.95220333338 	(obj:0)
STE(4,76)                            1398.17066281666 	(obj:0)
STE(4,77)                            2394.93666614995 	(obj:0)
STE(4,78)                            3612.38886948333 	(obj:0)
STE(4,79)                            2394.93666615001 	(obj:0)
STE(4,80)                             3391.7026694833 	(obj:0)
STE(4,81)                            4609.15487281668 	(obj:0)
STE(4,82)                                      3307.5 	(obj:0)
STE(4,83)                            4304.26600333329 	(obj:0)
STE(4,84)                            5521.71820666667 	(obj:0)
STE(4,85)                            2615.62286615004 	(obj:0)
STE(4,86)                            3612.38886948333 	(obj:0)
STE(4,87)                            4829.84107281671 	(obj:0)
STE(4,88)                            3612.38886948339 	(obj:0)
STE(4,89)                            4609.15487281668 	(obj:0)
STE(4,90)                            5826.60707615006 	(obj:0)
STE(4,91)                            4524.95220333338 	(obj:0)
STE(4,92)                            5521.71820666667 	(obj:0)
STE(4,93)                            6739.17041000005 	(obj:0)
STE(4,94)                            1313.96799333341 	(obj:0)
STE(4,95)                             2310.7339966667 	(obj:0)
STE(4,96)                            3528.18620000008 	(obj:0)
STE(4,97)                            2310.73399666676 	(obj:0)
STE(4,98)                            3307.50000000005 	(obj:0)
STE(4,99)                            4524.95220333343 	(obj:0)
STE(4,100)                           3223.29733051675 	(obj:0)
STE(4,101)                           4220.06333385004 	(obj:0)
STE(4,102)                           5437.51553718342 	(obj:0)
STE(4,103)                            2310.7339966667 	(obj:0)
STE(4,104)                           3307.49999999999 	(obj:0)
STE(4,105)                           4524.95220333337 	(obj:0)
STE(4,106)                           3307.50000000005 	(obj:0)
STE(4,107)                           4304.26600333334 	(obj:0)
STE(4,108)                           5521.71820666672 	(obj:0)
STE(4,109)                           4220.06333385004 	(obj:0)
STE(4,110)                           5216.82933718333 	(obj:0)
STE(4,111)                           6434.28154051671 	(obj:0)
STE(4,112)                           3528.18620000008 	(obj:0)
STE(4,113)                           4524.95220333337 	(obj:0)
STE(4,114)                           5742.40440666675 	(obj:0)
STE(4,115)                           4524.95220333343 	(obj:0)
STE(4,116)                           5521.71820666672 	(obj:0)
STE(4,117)                            6739.1704100001 	(obj:0)
STE(4,118)                           5437.51553718342 	(obj:0)
STE(4,119)                           6434.28154051671 	(obj:0)
STE(4,120)                           7651.73374385009 	(obj:0)
y1(4,100)                                 1992.796386 	(obj:0)
y1(4,101)                            1095.70698300004 	(obj:0)
y1(4,103)                                 1992.796386 	(obj:0)
y1(4,104)                            1095.70698300004 	(obj:0)
y1(4,106)                                 1992.796386 	(obj:0)
y1(4,107)                            1095.70698300004 	(obj:0)
y1(4,109)                                 1992.796386 	(obj:0)
y1(4,110)                            1095.70698300004 	(obj:0)
y1(4,112)                                 1992.796386 	(obj:0)
y1(4,113)                            1095.70698300004 	(obj:0)
y1(4,115)                                 1992.796386 	(obj:0)
y1(4,116)                            1095.70698300004 	(obj:0)
y1(4,118)                                 1992.796386 	(obj:0)
y1(4,119)                            1095.70698300004 	(obj:0)
WB(3)                                 3399.3204933139 	(obj:0)
AVE(3)                                3399.3204933139 	(obj:0)
AVE(4)                               3353.21046544222 	(obj:0)
WG(4)                                3353.21046544222 	(obj:10)
BG(1)                                3377.84999999995 	(obj:10)
BG(2)                                6029.95266782136 	(obj:10)
BG(3)                                         3377.85 	(obj:10)
BG(4)                                1142.70788455777 	(obj:10)
WB(1)                                3134.60043707458 	(obj:0)
AVE(1)                               3134.60043707458 	(obj:0)
WB(2)                                3326.45170866643 	(obj:0)
AVE(2)                               3326.45170866643 	(obj:0)
y1(1,1)                              897.089402999962 	(obj:0)
y1(2,4)                              3496.15001746495 	(obj:0)
y1(2,5)                              2599.06061446499 	(obj:0)
y1(2,6)                              1503.35363146495 	(obj:0)
y1(2,7)                              3496.15001746495 	(obj:0)
y1(2,8)                              2599.06061446499 	(obj:0)
y1(2,9)                              1503.35363146495 	(obj:0)
y1(2,10)                             3496.15001746495 	(obj:0)
y1(2,11)                             2599.06061446499 	(obj:0)
y1(2,12)                             1503.35363146495 	(obj:0)
y1(3,13)                             897.089403000015 	(obj:0)
y1(3,16)                             897.089403000015 	(obj:0)
y1(3,19)                             897.089403000015 	(obj:0)
y1(3,22)                             897.089403000015 	(obj:0)
y1(3,25)                             897.089403000015 	(obj:0)
y1(3,28)                             897.089403000015 	(obj:0)
y1(3,31)                             897.089403000015 	(obj:0)
y1(3,34)                             897.089403000015 	(obj:0)
y1(3,37)                             897.089403000015 	(obj:0)
y1(4,40)                                  1992.796386 	(obj:0)
y1(4,41)                             1095.70698300004 	(obj:0)
y1(4,43)                                  1992.796386 	(obj:0)
y1(4,44)                             1095.70698300004 	(obj:0)
y1(4,46)                                  1992.796386 	(obj:0)
y1(4,47)                             1095.70698300004 	(obj:0)
y1(4,49)                                  1992.796386 	(obj:0)
y1(4,50)                             1095.70698300004 	(obj:0)
y1(4,52)                                  1992.796386 	(obj:0)
y1(4,53)                             1095.70698300004 	(obj:0)
y1(4,55)                                  1992.796386 	(obj:0)
y1(4,56)                             1095.70698300004 	(obj:0)
y1(4,58)                                  1992.796386 	(obj:0)
y1(4,59)                             1095.70698300004 	(obj:0)
y1(4,61)                                  1992.796386 	(obj:0)
y1(4,62)                             1095.70698300004 	(obj:0)
y1(4,64)                                  1992.796386 	(obj:0)
y1(4,65)                             1095.70698300004 	(obj:0)
y1(4,67)                                  1992.796386 	(obj:0)
y1(4,68)                             1095.70698300004 	(obj:0)
y1(4,70)                                  1992.796386 	(obj:0)
y1(4,71)                             1095.70698300004 	(obj:0)
y1(4,73)                                  1992.796386 	(obj:0)
y1(4,74)                             1095.70698300004 	(obj:0)
y1(4,76)                                  1992.796386 	(obj:0)
y1(4,77)                             1095.70698300004 	(obj:0)
y1(4,79)                                  1992.796386 	(obj:0)
y1(4,80)                             1095.70698300004 	(obj:0)
y1(4,82)                                  1992.796386 	(obj:0)
y1(4,83)                             1095.70698300004 	(obj:0)
y1(4,85)                                  1992.796386 	(obj:0)
y1(4,86)                             1095.70698300004 	(obj:0)
y1(4,88)                                  1992.796386 	(obj:0)
y1(4,89)                             1095.70698300004 	(obj:0)
y1(4,91)                                  1992.796386 	(obj:0)
y1(4,92)                             1095.70698300004 	(obj:0)
y1(4,94)                                  1992.796386 	(obj:0)
y1(4,95)                             1095.70698300004 	(obj:0)
y1(4,97)                                  1992.796386 	(obj:0)
y1(4,98)                             1095.70698300004 	(obj:0)
y2(1,3)                              960.592983000042 	(obj:0)
y2(3,15)                             960.592982999986 	(obj:0)
y2(3,18)                             960.592982999986 	(obj:0)
y2(3,21)                             960.592982999986 	(obj:0)
y2(3,24)                             960.592982999986 	(obj:0)
y2(3,27)                             960.592982999986 	(obj:0)
y2(3,30)                             960.592982999986 	(obj:0)
y2(3,33)                             960.592982999986 	(obj:0)
y2(3,36)                             960.592982999986 	(obj:0)
y2(3,39)                             960.592982999986 	(obj:0)
